data;

set A := 626 972 304 928 166 378 712 714 90 488 212 252 458 134 332 268 228 402 262 518 598 162 722 146 514 142 946 432 850 728 444 640 348 254 756 122 986 24 936 334 472 364 434 128 16 746 754 954 230 4 150 1000 418 706 10 856 92 148 74 302 18 758 420 926 782 460 468 352 182 238 436 256 154 282 838 492 760 572 774 710 164 512 958 844 694 526 896 832 840 438 686 266 104 540 478 836;
param T := 24000;

end;
